75 -6 33 63 23 56 24 49 16 -10 31 25 55 18 50 40 -11 66 65 38 58 -12 72 39 9 32 44 3 17 -26 7 53 14 59 19 35 -29 37 20 70 60 71 69 36 47 48 -30 74 21 61 28 2 68 -45 5 15 57 13 54 8 46 -51 73 1 43 41 42 64 22 62 -67 34 52 27 4 75 0

